(declare-fun temp15343_1 () (_ BitVec 64))
(declare-fun temp15343_2 () (_ BitVec 64))
(declare-fun var148331 () (_ BitVec 64))
(declare-fun k!0 () Bool)
(declare-fun ARGNAME_input_NAMEEND_DIM () (_ BitVec 64))
(declare-fun temp15343_3 () (_ BitVec 64))
(declare-fun temp15343_4 () (_ BitVec 64))
(declare-fun ARGNAME_input_NAMEEND_DIMSIZE
             ()
             (Array (_ BitVec 64) (_ BitVec 64)))
(declare-fun temp15343_5 () (_ BitVec 64))
(declare-fun temp15343_6 () (_ BitVec 64))
(declare-fun temp15343_7 () (_ BitVec 64))
(declare-fun temp15343_8 () (_ BitVec 64))
(declare-fun temp15343_9 () (_ BitVec 64))
(declare-fun temp15343_10 () (_ BitVec 64))
(declare-fun temp15343_11 () (_ BitVec 64))
(declare-fun temp15343_12 () (_ BitVec 64))
(declare-fun temp15343_13 () (_ BitVec 64))
(declare-fun temp15343_14 () (_ BitVec 64))
(declare-fun temp15343_15 () (_ BitVec 64))
(declare-fun temp15343_16 () (_ BitVec 64))
(declare-fun temp15343_17 () (_ BitVec 64))
(declare-fun temp15343_18 () (_ BitVec 64))
(declare-fun temp15343_19 () (_ BitVec 64))
(declare-fun temp15343_20 () (_ BitVec 64))
(declare-fun temp15343_21 () (_ BitVec 64))
(declare-fun var148344 () (_ BitVec 64))
(declare-fun temp15343_22 () (_ BitVec 64))
(declare-fun temp15343_23 () (_ BitVec 64))
(declare-fun var148345 () (_ BitVec 64))
(declare-fun temp15343_25 () (_ BitVec 64))
(declare-fun temp15343_24 () (_ BitVec 64))
(declare-fun temp15343_27 () (_ BitVec 64))
(declare-fun temp15343_26 () (_ BitVec 64))
(declare-fun ARGNAME_split_sizes_NAMEEND_LEN () (_ BitVec 64))
(declare-fun var396610 () (_ BitVec 64))
(declare-fun temp15343_28 () (_ BitVec 64))
(declare-fun temp15343_29 () (_ BitVec 64))
(declare-fun var462151 () (_ BitVec 64))
(declare-fun var527698 () (_ BitVec 64))
(declare-fun temp15343_30 () (_ BitVec 64))
(declare-fun var1064603 () (_ BitVec 64))
(declare-fun temp15343_31 () (_ BitVec 64))
(declare-fun var1064652 () (_ BitVec 64))
(declare-fun temp15343_32 () (_ BitVec 64))
(declare-fun temp15343_33 () (_ BitVec 64))
(declare-fun var1315402 () (_ BitVec 64))
(declare-fun temp15343_34 () (_ BitVec 64))
(declare-fun var2036298 () (_ BitVec 64))
(declare-fun temp15343_35 () (_ BitVec 64))
(declare-fun var1064769 () (_ BitVec 64))
(declare-fun temp15343_36 () (_ BitVec 64))
(declare-fun temp15343_37 () (_ BitVec 64))
(declare-fun var3226268 () (_ BitVec 64))
(declare-fun var3226272 () (_ BitVec 64))
(declare-fun var3226433 () (_ BitVec 64))
(declare-fun temp15343_39 () (_ BitVec 64))
(declare-fun temp15343_38 () (_ BitVec 64))
(declare-fun var148387 () (_ BitVec 64))
(declare-fun var148388 () (_ BitVec 64))
(declare-fun temp15343_40 () (_ BitVec 64))
(declare-fun temp15343_41 () (_ BitVec 64))
(declare-fun var6688548 () (_ BitVec 64))
(declare-fun temp15343_42 () (_ BitVec 64))
(declare-fun var6688563 () (_ BitVec 64))
(declare-fun temp15343_43 () (_ BitVec 64))
(declare-fun var6688565 () (_ BitVec 64))
(declare-fun temp15343_44 () (_ BitVec 64))
(declare-fun var6688628 () (_ BitVec 64))
(declare-fun temp15343_45 () (_ BitVec 64))
(declare-fun var6754084 () (_ BitVec 64))
(declare-fun temp15343_46 () (_ BitVec 64))
(declare-fun var6754099 () (_ BitVec 64))
(declare-fun temp15343_47 () (_ BitVec 64))
(declare-fun var6754101 () (_ BitVec 64))
(declare-fun temp15343_48 () (_ BitVec 64))
(declare-fun var6754164 () (_ BitVec 64))
(declare-fun temp15343_49 () (_ BitVec 64))
(declare-fun var6963596 () (_ BitVec 64))
(declare-fun temp15343_50 () (_ BitVec 64))
(declare-fun var7147300 () (_ BitVec 64))
(declare-fun temp15343_51 () (_ BitVec 64))
(declare-fun var7147315 () (_ BitVec 64))
(declare-fun temp15343_52 () (_ BitVec 64))
(declare-fun var7147317 () (_ BitVec 64))
(declare-fun temp15343_53 () (_ BitVec 64))
(declare-fun var7147380 () (_ BitVec 64))
(declare-fun temp15343_54 () (_ BitVec 64))
(declare-fun var7212836 () (_ BitVec 64))
(declare-fun temp15343_55 () (_ BitVec 64))
(declare-fun var7212851 () (_ BitVec 64))
(declare-fun temp15343_56 () (_ BitVec 64))
(declare-fun var7212853 () (_ BitVec 64))
(declare-fun temp15343_57 () (_ BitVec 64))
(declare-fun var7212916 () (_ BitVec 64))
(assert (= temp15343_1 #x0000000000000000))
(assert (= var148331
   (ite (= ARGNAME_input_NAMEEND_DIM temp15343_1)
        #x0000000000000001
        #x0000000000000000)))
(assert (= temp15343_2 #x0000000000000000))
(assert (= var148331 temp15343_2))
(assert (= temp15343_3 #x0000000000000000))
(assert (= temp15343_4 temp15343_3))
(assert (= temp15343_5 (select ARGNAME_input_NAMEEND_DIMSIZE temp15343_4)))
(assert (= temp15343_6 #x0000000000000001))
(assert (= temp15343_7 temp15343_6))
(assert (= temp15343_8 (select ARGNAME_input_NAMEEND_DIMSIZE temp15343_7)))
(assert (= temp15343_9 #x0000000000000002))
(assert (= temp15343_10 temp15343_9))
(assert (= temp15343_11 (select ARGNAME_input_NAMEEND_DIMSIZE temp15343_10)))
(assert (= temp15343_12 #x0000000000000003))
(assert (= temp15343_13 temp15343_12))
(assert (= temp15343_14 (select ARGNAME_input_NAMEEND_DIMSIZE temp15343_13)))
(assert (= temp15343_15 #x0000000000000004))
(assert (= temp15343_16 temp15343_15))
(assert (= temp15343_17 (select ARGNAME_input_NAMEEND_DIMSIZE temp15343_16)))
(assert (= temp15343_18 #x0000000000000005))
(assert (= temp15343_19 temp15343_18))
(assert (= temp15343_20 (select ARGNAME_input_NAMEEND_DIMSIZE temp15343_19)))
(assert (= temp15343_21 #x0000000000000000))
(assert (= temp15343_22
   (ite (bvslt var148344 temp15343_21)
        (bvadd ARGNAME_input_NAMEEND_DIM var148344)
        var148344)))
(assert (= temp15343_23 (select ARGNAME_input_NAMEEND_DIMSIZE temp15343_22)))
(assert (= var148345 temp15343_23))
(assert (bvslt (ite (bvslt var148344 temp15343_21)
            (bvadd ARGNAME_input_NAMEEND_DIM var148344)
            var148344)
       ARGNAME_input_NAMEEND_DIM))
(assert (= temp15343_25 #x0000000000000000))
(assert (= temp15343_24 temp15343_25))
(assert (= temp15343_27 #x0000000000000000))
(assert (= temp15343_26 temp15343_27))
(assert (= var396610
   (ite (bvslt temp15343_26 ARGNAME_split_sizes_NAMEEND_LEN)
        #x0000000000000001
        #x0000000000000000)))
(assert (= temp15343_28
   (ite (= var396610 #x0000000000000001)
        ARGNAME_split_sizes_NAMEEND_LEN
        temp15343_26)))
(assert (= temp15343_29 #x0000000000000000))
(assert (= var462151 temp15343_29))
(assert (= var527698 var462151))
(assert (= temp15343_30 #x0000000000000001))
(assert (= var1064603 temp15343_30))
(assert (= temp15343_31 #x0000000000000000))
(assert (= var1064652
   (ite (= ARGNAME_input_NAMEEND_DIM temp15343_31)
        #x0000000000000001
        #x0000000000000000)))
(assert (= temp15343_32 #x0000000000000000))
(assert (= var1064652 temp15343_32))
(assert (= temp15343_33 #x0000000000000005))
(assert (= var1315402 temp15343_33))
(assert (= temp15343_34 #x0000000000000005))
(assert (= var2036298 temp15343_34))
(assert (= temp15343_35 #x0000000000000001))
(assert (= var1064769
   (ite (bvslt var1064603 temp15343_35) #x0000000000000001 #x0000000000000000)))
(assert (= temp15343_36 #x0000000000000000))
(assert (= var1064769 temp15343_36))
(assert (= temp15343_37 #x0000000000000000))
(assert (= var3226268 temp15343_37))
(assert (= var3226272 var1064603))
(assert (= var3226433 var3226268))
(assert (= temp15343_39 #x0000000000000000))
(assert (= temp15343_38 temp15343_39))
(assert (= var148387 var148345))
(assert (= var148388
   (ite (= temp15343_24 var148387) #x0000000000000001 #x0000000000000000)))
(assert (= temp15343_40 #x0000000000000001))
(assert (= var148388 temp15343_40))
(assert (= temp15343_41 #x0000000000000000))
(assert (= var6688548 temp15343_41))
(assert (= temp15343_42 #x0000000000003fff))
(assert (= var6688563 (bvand var6688548 temp15343_42)))
(assert (= temp15343_43 #x0000000000000000))
(assert (= var6688565
   (ite (= var6688563 temp15343_43) #x0000000000000001 #x0000000000000000)))
(assert (= temp15343_44 #x0000000000000001))
(assert (= var6688565 temp15343_44))
(assert (= var6688628 var6688548))
(assert (= temp15343_45 #x0000000000000000))
(assert (= var6754084 temp15343_45))
(assert (= temp15343_46 #x0000000000003fff))
(assert (= var6754099 (bvand var6754084 temp15343_46)))
(assert (= temp15343_47 #x0000000000000000))
(assert (= var6754101
   (ite (= var6754099 temp15343_47) #x0000000000000001 #x0000000000000000)))
(assert (= temp15343_48 #x0000000000000001))
(assert (= var6754101 temp15343_48))
(assert (= var6754164 var6754084))
(assert (= temp15343_49 #x0000000000000000))
(assert (= var6963596 temp15343_49))
(assert (= temp15343_50 #x0000000000000000))
(assert (= var7147300 temp15343_50))
(assert (= temp15343_51 #x0000000000003fff))
(assert (= var7147315 (bvand var7147300 temp15343_51)))
(assert (= temp15343_52 #x0000000000000000))
(assert (= var7147317
   (ite (= var7147315 temp15343_52) #x0000000000000001 #x0000000000000000)))
(assert (= temp15343_53 #x0000000000000001))
(assert (= var7147317 temp15343_53))
(assert (= var7147380 var7147300))
(assert (= temp15343_54 #x0000000000000000))
(assert (= var7212836 temp15343_54))
(assert (= temp15343_55 #x0000000000003fff))
(assert (= var7212851 (bvand var7212836 temp15343_55)))
(assert (= temp15343_56 #x0000000000000000))
(assert (= var7212853
   (ite (= var7212851 temp15343_56) #x0000000000000001 #x0000000000000000)))
(assert (= temp15343_57 #x0000000000000001))
(assert (= var7212853 temp15343_57))
(assert (= var7212916 var7212836))
(model-add temp15343_1 () (_ BitVec 64) #x0000000000000000)
(model-add temp15343_2 () (_ BitVec 64) #x0000000000000000)
(model-add var148331 () (_ BitVec 64) #x0000000000000000)
(model-del k!0)
(model-add ARGNAME_input_NAMEEND_DIM
           ()
           (_ BitVec 64)
           (ite k!0 #x0000000000000000 (bvnot #x0000000000000000)))






